cpu-bind=MASK - cn-0134, task  0  0 [4147613]: mask |--------------------||||--------BBBBBBBB----|  set
Python 3.10.6
Gurobi Optimizer version 10.0.0 build v10.0.0rc2 (linux64)
Copyright (c) 2022, Gurobi Optimization, LLC
started at Thu Oct 19 14:12:04 CEST 2023
####################################################################################################
####################################################################################################
Start ROADEF
Set parameter TokenServer to value "license3.uni-paderborn.de"
####################################################################################################
####################################################################################################
Time for optimization 43200 (s)
####################################################################################################
Data read
Took 	00:00:00.042
####################################################################################################
Presolve
Anzahl Trucks in OPtimierungsproblem:  20
Itemgruppen in AP werden eher enger gemacht:  True
Start Reduction
Orinigial Anzahl:  198 657
Reduzierte Anzahl:  58 657
####################################################################################################
Load Assignment 1 solution
/scratch/hpc-prf-winf4/dwetzel/ROADEF/sol/AllPackingTight/X/VA6/output_items.csv
Took 	00:00:00.074
####################################################################################################
####################################################################################################
Simple Packing:  2
dataP.t2DSP:  1
####################################################################################################
####################################################################################################
First packing

----------------------------------------------------------------------------------------------------
2D Packing Heuristic in Truck P198654301
Min2DVol: 19.199999999999996 [m2]
Stack 0 with items: ['0091017300_14062023000196', '0091017300_14062023000196']
Stack 1 with items: ['0091017300_14062023000190', '0091017300_14062023000167']
Stack 2 with items: ['0091017300_14062023000161', '0091017300_14062023000149']
Stack 3 with items: ['0091017300_14062023000108', '0091017300_14062023000106']
Stack 4 with items: ['0091017300_14062023000106', '0091017300_14062023000104']
Stack 5 with items: ['0091017300_14062023000104', '0091017300_14062023000104']
Stack 6 with items: ['0091017300_14062023000103', '0091017300_14062023000103']
Stack 7 with items: ['0091017300_14062023000100', '0091017300_14062023000100']
Stack 8 with items: ['0091017300_14062023000065', '0091017300_14062023000063']
Stack 9 with items: ['0091017300_14062023000053', '0091017300_14062023000053']
Stack 10 with items: ['0091017300_14062023000047', '0091017300_14062023000047']
Stack 11 with items: ['0091017300_14062023000040', '0091017300_14062023000040']
Stack 12 with items: ['0091017300_14062023000040', '0091017300_14062023000033']
Stack 13 with items: ['0091017300_14062023000033', '0091017300_14062023000033']
Stack 14 with items: ['0091017300_14062023000017', '0091017300_14062023000016']
Stack 15 with items: ['0091017300_14062023000016', '0091017300_14062023000015']
Heuristic packed all stacks

----------------------------------------------------------------------------------------------------
2D Packing Heuristic in Truck P177654301
Min2DVol: 22.799999999999994 [m2]
Stack 0 with items: ['0091017300_14062023000134', '0091017300_14062023000091']
Stack 1 with items: ['0091017300_14062023000091', '0091017300_14062023000091']
Stack 2 with items: ['0091017300_14062023000091', '0091017300_14062023000091']
Stack 3 with items: ['0091017300_14062023000081', '0091017300_14062023000080']
Stack 4 with items: ['0091017300_14062023000080', '0091017300_14062023000080']
Stack 5 with items: ['0091017300_14062023000073', '0091017300_14062023000073']
Stack 6 with items: ['0091017300_14062023000073', '0091017300_14062023000061']
Stack 7 with items: ['0091017300_14062023000061', '0091017300_14062023000061']
Stack 8 with items: ['0091017300_14062023000061', '0091017300_14062023000061']
Stack 9 with items: ['0091017300_14062023000061', '0091017300_14062023000061']
Stack 10 with items: ['0091017300_14062023000061', '0091017300_14062023000061']
Stack 11 with items: ['0091017300_14062023000061', '0091017300_14062023000061']
Stack 12 with items: ['0091017300_14062023000061', '0091017300_14062023000061']
Stack 13 with items: ['0091017300_14062023000061', '0091017300_14062023000061']
Stack 14 with items: ['0091017300_14062023000061', '0091017300_14062023000061']
Stack 15 with items: ['0091017300_14062023000061', '0091017300_14062023000061']
Stack 16 with items: ['0091017300_14062023000061', '0091017300_14062023000061']
Stack 17 with items: ['0091017300_14062023000018', '0091017300_14062023000018']
Stack 18 with items: ['0091017300_14062023000018']
Heuristic packed all stacks

----------------------------------------------------------------------------------------------------
2D Packing Heuristic in Truck P186654301
Min2DVol: 22.799999999999994 [m2]
Stack 0 with items: ['0091017300_14062023000197', '0091017300_14062023000197']
Stack 1 with items: ['0091017300_14062023000197', '0091017300_14062023000197']
Stack 2 with items: ['0091017300_14062023000197', '0091017300_14062023000195']
Stack 3 with items: ['0091017300_14062023000192', '0091017300_14062023000192']
Stack 4 with items: ['0091017300_14062023000192', '0091017300_14062023000192']
Stack 5 with items: ['0091017300_14062023000192', '0091017300_14062023000192']
Stack 6 with items: ['0091017300_14062023000192', '0091017300_14062023000181']
Stack 7 with items: ['0091017300_14062023000171', '0091017300_14062023000171']
Stack 8 with items: ['0091017300_14062023000171', '0091017300_14062023000171']
Stack 9 with items: ['0091017300_14062023000163', '0091017300_14062023000140']
Stack 10 with items: ['0091017300_14062023000137', '0091017300_14062023000137']
Stack 11 with items: ['0091017300_14062023000137', '0091017300_14062023000137']
Stack 12 with items: ['0091017300_14062023000128', '0091017300_14062023000087']
Stack 13 with items: ['0091017300_14062023000074', '0091017300_14062023000074']
Stack 14 with items: ['0091017300_14062023000041', '0091017300_14062023000037']
Stack 15 with items: ['0091017300_14062023000037', '0091017300_14062023000037']
Stack 16 with items: ['0091017300_14062023000036', '0091017300_14062023000036']
Stack 17 with items: ['0091017300_14062023000036', '0091017300_14062023000011']
Stack 18 with items: ['0091017300_14062023000011']
Heuristic packed all stacks

----------------------------------------------------------------------------------------------------
2D Packing Heuristic in Truck P173654305
Min2DVol: 19.290299999999995 [m2]
Stack 0 with items: ['0091017300_14062023000183', '0091017300_14062023000164', '0091017300_14062023000180', '0091017300_14062023000164']
Stack 1 with items: ['0091017300_14062023000164', '0091017300_14062023000151', '0091017300_14062023000029', '0091017300_14062023000164', '0091017300_14062023000164', '0091017300_14062023000164']
Stack 2 with items: ['0091017300_14062023000151', '0091017300_14062023000029', '0091017300_14062023000029', '0091017300_14062023000136', '0091017300_14062023000029']
Stack 3 with items: ['0091017300_14062023000083', '0091017300_14062023000029', '0091017300_14062023000082', '0091017300_14062023000029']
Stack 4 with items: ['0091017300_14062023000082', '0091017300_14062023000059', '0091017300_14062023000082']
Stack 5 with items: ['0091017300_14062023000051', '0091017300_14062023000051']
Stack 6 with items: ['0091017300_14062023000107', '0091017300_14062023000107']
Stack 7 with items: ['0091017300_14062023000051', '0091017300_14062023000051']
Stack 8 with items: ['0091017300_14062023000051', '0091017300_14062023000051']
Stack 9 with items: ['0091017300_14062023000152', '0091017300_14062023000107']
Stack 10 with items: ['0091017300_14062023000051', '0091017300_14062023000051']
Stack 11 with items: ['0091017300_14062023000107', '0091017300_14062023000107']
Stack 12 with items: ['0091017300_14062023000134', '0091017300_14062023000134']
Stack 13 with items: ['0091017300_14062023000134', '0091017300_14062023000116']
Stack 14 with items: ['0091017300_14062023000080', '0091017300_14062023000080']
Stack 15 with items: ['0091017300_14062023000107']
Heuristic packed all stacks

----------------------------------------------------------------------------------------------------
2D Packing Heuristic in Truck P185654305
Min2DVol: 24.07223999999999 [m2]
Stack 0 with items: ['0091017300_14062023000113', '0091017300_14062023000090', '0091017300_14062023000004']
Stack 1 with items: ['0091017300_14062023000024', '0091017300_14062023000006', '0091017300_14062023000024', '0091017300_14062023000076', '0091017300_14062023000076']
Stack 2 with items: ['0091017300_14062023000030', '0091017300_14062023000046']
Stack 3 with items: ['0091017300_14062023000030', '0091017300_14062023000006']
Stack 4 with items: ['0091017300_14062023000175', '0091017300_14062023000175']
Stack 5 with items: ['0091017300_14062023000132', '0091017300_14062023000120']
Stack 6 with items: ['0091017300_14062023000120', '0091017300_14062023000120']
Stack 7 with items: ['0091017300_14062023000098', '0091017300_14062023000087']
Stack 8 with items: ['0091017300_14062023000087', '0091017300_14062023000087']
Stack 9 with items: ['0091017300_14062023000087', '0091017300_14062023000087']
Stack 10 with items: ['0091017300_14062023000087', '0091017300_14062023000075']
Stack 11 with items: ['0091017300_14062023000075', '0091017300_14062023000075']
Stack 12 with items: ['0091017300_14062023000075', '0091017300_14062023000075']
Stack 13 with items: ['0091017300_14062023000075', '0091017300_14062023000075']
Stack 14 with items: ['0091017300_14062023000054', '0091017300_14062023000054']
Stack 15 with items: ['0091017300_14062023000054', '0091017300_14062023000054']
Stack 16 with items: ['0091017300_14062023000054', '0091017300_14062023000037']
Stack 17 with items: ['0091017300_14062023000037', '0091017300_14062023000037']
Stack 18 with items: ['0091017300_14062023000034', '0091017300_14062023000034']
Stack 19 with items: ['0091017300_14062023000034']
Heuristic packed all stacks

----------------------------------------------------------------------------------------------------
2D Packing Heuristic in Truck P208654305
Min2DVol: 21.690299999999993 [m2]
Stack 0 with items: ['0091017300_14062023000001', '0091017300_14062023000001', '0091017300_14062023000001', '0091017300_14062023000094']
Stack 1 with items: ['0091017300_14062023000166', '0091017300_14062023000021', '0091017300_14062023000105', '0091017300_14062023000021']
Stack 2 with items: ['0091017300_14062023000131', '0091017300_14062023000105', '0091017300_14062023000068']
Stack 3 with items: ['0091017300_14062023000131', '0091017300_14062023000148', '0091017300_14062023000148']
Stack 4 with items: ['0091017300_14062023000069', '0091017300_14062023000021', '0091017300_14062023000148']
Stack 5 with items: ['0091017300_14062023000142', '0091017300_14062023000142']
Stack 6 with items: ['0091017300_14062023000142', '0091017300_14062023000142']
Stack 7 with items: ['0091017300_14062023000093', '0091017300_14062023000093']
Stack 8 with items: ['0091017300_14062023000093', '0091017300_14062023000093']
Stack 9 with items: ['0091017300_14062023000093', '0091017300_14062023000093']
Stack 10 with items: ['0091017300_14062023000084', '0091017300_14062023000084']
Stack 11 with items: ['0091017300_14062023000084', '0091017300_14062023000084']
Stack 12 with items: ['0091017300_14062023000084', '0091017300_14062023000084']
Stack 13 with items: ['0091017300_14062023000084', '0091017300_14062023000084']
Stack 14 with items: ['0091017300_14062023000070', '0091017300_14062023000070']
Stack 15 with items: ['0091017300_14062023000070', '0091017300_14062023000070']
Stack 16 with items: ['0091017300_14062023000038', '0091017300_14062023000038']
Stack 17 with items: ['0091017300_14062023000025', '0091017300_14062023000025']
Heuristic packed all stacks

----------------------------------------------------------------------------------------------------
2D Packing Heuristic in Truck P192654305
Min2DVol: 27.708360000000003 [m2]
Stack 0 with items: ['0091017300_14062023000194', '0091017300_14062023000194']
Stack 1 with items: ['0091017300_14062023000194', '0091017300_14062023000176']
Stack 2 with items: ['0091017300_14062023000170', '0091017300_14062023000170']
Stack 3 with items: ['0091017300_14062023000170', '0091017300_14062023000170']
Stack 4 with items: ['0091017300_14062023000170', '0091017300_14062023000170']
Stack 5 with items: ['0091017300_14062023000160', '0091017300_14062023000154']
Stack 6 with items: ['0091017300_14062023000153', '0091017300_14062023000153']
Stack 7 with items: ['0091017300_14062023000153', '0091017300_14062023000145']
Stack 8 with items: ['0091017300_14062023000139', '0091017300_14062023000115']
Stack 9 with items: ['0091017300_14062023000115', '0091017300_14062023000115']
Stack 10 with items: ['0091017300_14062023000115', '0091017300_14062023000071']
Stack 11 with items: ['0091017300_14062023000060', '0091017300_14062023000032']
Stack 12 with items: ['0091017300_14062023000032', '0091017300_14062023000032']
Stack 13 with items: ['0091017300_14062023000032', '0091017300_14062023000032']
Stack 14 with items: ['0091017300_14062023000010', '0091017300_14062023000003']
Stack 15 with items: ['0091017300_14062023000003', '0091017300_14062023000003']
Stack 16 with items: ['0091017300_14062023000002']
Stack 17 with items: ['0091017300_14062023000078', '0091017300_14062023000078']
Stack 18 with items: ['0091017300_14062023000174', '0091017300_14062023000086', '0091017300_14062023000162', '0091017300_14062023000086']
Stack 19 with items: ['0091017300_14062023000129', '0091017300_14062023000129', '0091017300_14062023000162']
Stack 20 with items: ['0091017300_14062023000158', '0091017300_14062023000110']
Stack 21 with items: ['0091017300_14062023000044', '0091017300_14062023000044', '0091017300_14062023000129', '0091017300_14062023000158']
Stack 22 with items: ['0091017300_14062023000089', '0091017300_14062023000089', '0091017300_14062023000089']
Heuristic packed all stacks

----------------------------------------------------------------------------------------------------
2D Packing Heuristic in Truck P199654305
Min2DVol: 26.49029999999999 [m2]
Stack 0 with items: ['0091017300_14062023000191', '0091017300_14062023000186', '0091017300_14062023000186', '0091017300_14062023000005', '0091017300_14062023000191']
Stack 1 with items: ['0091017300_14062023000172', '0091017300_14062023000127', '0091017300_14062023000133', '0091017300_14062023000005']
Stack 2 with items: ['0091017300_14062023000125', '0091017300_14062023000095', '0091017300_14062023000125']
Stack 3 with items: ['0091017300_14062023000095', '0091017300_14062023000077']
Stack 4 with items: ['0091017300_14062023000057', '0091017300_14062023000007', '0091017300_14062023000057']
Stack 5 with items: ['0091017300_14062023000099', '0091017300_14062023000159']
Stack 6 with items: ['0091017300_14062023000017', '0091017300_14062023000017']
Stack 7 with items: ['0091017300_14062023000017', '0091017300_14062023000017']
Stack 8 with items: ['0091017300_14062023000017', '0091017300_14062023000017']
Stack 9 with items: ['0091017300_14062023000099', '0091017300_14062023000099']
Stack 10 with items: ['0091017300_14062023000165', '0091017300_14062023000099']
Stack 11 with items: ['0091017300_14062023000045', '0091017300_14062023000045']
Stack 12 with items: ['0091017300_14062023000159', '0091017300_14062023000159']
Stack 13 with items: ['0091017300_14062023000045', '0091017300_14062023000017']
Stack 14 with items: ['0091017300_14062023000017', '0091017300_14062023000017']
Stack 15 with items: ['0091017300_14062023000017', '0091017300_14062023000017']
Stack 16 with items: ['0091017300_14062023000165', '0091017300_14062023000111']
Stack 17 with items: ['0091017300_14062023000165', '0091017300_14062023000165']
Stack 18 with items: ['0091017300_14062023000111', '0091017300_14062023000099']
Stack 19 with items: ['0091017300_14062023000017', '0091017300_14062023000017']
Stack 20 with items: ['0091017300_14062023000099', '0091017300_14062023000017']
Stack 21 with items: ['0091017300_14062023000111', '0091017300_14062023000159']
Heuristic packed all stacks

----------------------------------------------------------------------------------------------------
2D Packing Heuristic in Truck P187654305
Min2DVol: 28.926419999999986 [m2]
Stack 0 with items: ['0091017300_14062023000118', '0091017300_14062023000079', '0091017300_14062023000118', '0091017300_14062023000118', '0091017300_14062023000118']
Stack 1 with items: ['0091017300_14062023000088', '0091017300_14062023000067', '0091017300_14062023000067', '0091017300_14062023000079', '0091017300_14062023000067']
Stack 2 with items: ['0091017300_14062023000156', '0091017300_14062023000156']
Stack 3 with items: ['0091017300_14062023000026', '0091017300_14062023000026', '0091017300_14062023000026']
Stack 4 with items: ['0091017300_14062023000079', '0091017300_14062023000026', '0091017300_14062023000079']
Stack 5 with items: ['0091017300_14062023000112', '0091017300_14062023000112']
Stack 6 with items: ['0091017300_14062023000049', '0091017300_14062023000049', '0091017300_14062023000067']
Stack 7 with items: ['0091017300_14062023000173', '0091017300_14062023000173']
Stack 8 with items: ['0091017300_14062023000173', '0091017300_14062023000173']
Stack 9 with items: ['0091017300_14062023000155', '0091017300_14062023000155']
Stack 10 with items: ['0091017300_14062023000137', '0091017300_14062023000121']
Stack 11 with items: ['0091017300_14062023000121', '0091017300_14062023000121']
Stack 12 with items: ['0091017300_14062023000096', '0091017300_14062023000096']
Stack 13 with items: ['0091017300_14062023000074', '0091017300_14062023000074']
Stack 14 with items: ['0091017300_14062023000074', '0091017300_14062023000074']
Stack 15 with items: ['0091017300_14062023000074', '0091017300_14062023000074']
Stack 16 with items: ['0091017300_14062023000074', '0091017300_14062023000074']
Stack 17 with items: ['0091017300_14062023000074', '0091017300_14062023000074']
Stack 18 with items: ['0091017300_14062023000060', '0091017300_14062023000056']
Stack 19 with items: ['0091017300_14062023000056', '0091017300_14062023000056']
Stack 20 with items: ['0091017300_14062023000056', '0091017300_14062023000056']
Stack 21 with items: ['0091017300_14062023000056', '0091017300_14062023000056']
Stack 22 with items: ['0091017300_14062023000056', '0091017300_14062023000056']
Stack 23 with items: ['0091017300_14062023000037']
Heuristic packed all stacks

----------------------------------------------------------------------------------------------------
2D Packing Heuristic in Truck P178654305
Min2DVol: 27.70835999999999 [m2]
Stack 0 with items: ['0091017300_14062023000050', '0091017300_14062023000035', '0091017300_14062023000050', '0091017300_14062023000050', '0091017300_14062023000050']
Stack 1 with items: ['0091017300_14062023000014', '0091017300_14062023000014', '0091017300_14062023000072']
Stack 2 with items: ['0091017300_14062023000092', '0091017300_14062023000092', '0091017300_14062023000092']
Stack 3 with items: ['0091017300_14062023000072', '0091017300_14062023000138', '0091017300_14062023000138', '0091017300_14062023000138', '0091017300_14062023000144']
Stack 4 with items: ['0091017300_14062023000138', '0091017300_14062023000138', '0091017300_14062023000138', '0091017300_14062023000144', '0091017300_14062023000144']
Stack 5 with items: ['0091017300_14062023000039', '0091017300_14062023000050', '0091017300_14062023000050', '0091017300_14062023000072']
Stack 6 with items: ['0091017300_14062023000178', '0091017300_14062023000178']
Stack 7 with items: ['0091017300_14062023000178', '0091017300_14062023000178']
Stack 8 with items: ['0091017300_14062023000061', '0091017300_14062023000061']
Stack 9 with items: ['0091017300_14062023000061', '0091017300_14062023000061']
Stack 10 with items: ['0091017300_14062023000061', '0091017300_14062023000061']
Stack 11 with items: ['0091017300_14062023000023', '0091017300_14062023000023']
Stack 12 with items: ['0091017300_14062023000023', '0091017300_14062023000023']
Stack 13 with items: ['0091017300_14062023000023', '0091017300_14062023000023']
Stack 14 with items: ['0091017300_14062023000023', '0091017300_14062023000023']
Stack 15 with items: ['0091017300_14062023000023', '0091017300_14062023000023']
Stack 16 with items: ['0091017300_14062023000023', '0091017300_14062023000023']
Stack 17 with items: ['0091017300_14062023000023', '0091017300_14062023000023']
Stack 18 with items: ['0091017300_14062023000023', '0091017300_14062023000023']
Stack 19 with items: ['0091017300_14062023000023', '0091017300_14062023000023']
Stack 20 with items: ['0091017300_14062023000023', '0091017300_14062023000023']
Stack 21 with items: ['0091017300_14062023000023', '0091017300_14062023000023']
Stack 22 with items: ['0091017300_14062023000018', '0091017300_14062023000018']
Heuristic packed all stacks

----------------------------------------------------------------------------------------------------
2D Packing Heuristic in Truck P194654305
Min2DVol: 28.944479999999988 [m2]
Stack 0 with items: ['0091017300_14062023000198', '0091017300_14062023000147', '0091017300_14062023000147', '0091017300_14062023000147', '0091017300_14062023000198']
Stack 1 with items: ['0091017300_14062023000135', '0091017300_14062023000122', '0091017300_14062023000135']
Stack 2 with items: ['0091017300_14062023000122', '0091017300_14062023000122', '0091017300_14062023000122']
Stack 3 with items: ['0091017300_14062023000122', '0091017300_14062023000119', '0091017300_14062023000117']
Stack 4 with items: ['0091017300_14062023000119', '0091017300_14062023000097', '0091017300_14062023000117', '0091017300_14062023000085']
Stack 5 with items: ['0091017300_14062023000109', '0091017300_14062023000085', '0091017300_14062023000097', '0091017300_14062023000085']
Stack 6 with items: ['0091017300_14062023000066', '0091017300_14062023000066', '0091017300_14062023000066']
Stack 7 with items: ['0091017300_14062023000066', '0091017300_14062023000066']
Stack 8 with items: ['0091017300_14062023000126', '0091017300_14062023000126']
Stack 9 with items: ['0091017300_14062023000145', '0091017300_14062023000145']
Stack 10 with items: ['0091017300_14062023000145', '0091017300_14062023000145']
Stack 11 with items: ['0091017300_14062023000184', '0091017300_14062023000184']
Stack 12 with items: ['0091017300_14062023000194', '0091017300_14062023000194']
Stack 13 with items: ['0091017300_14062023000126', '0091017300_14062023000126']
Stack 14 with items: ['0091017300_14062023000126', '0091017300_14062023000126']
Stack 15 with items: ['0091017300_14062023000145', '0091017300_14062023000145']
Stack 16 with items: ['0091017300_14062023000145', '0091017300_14062023000145']
Stack 17 with items: ['0091017300_14062023000145', '0091017300_14062023000145']
Stack 18 with items: ['0091017300_14062023000145', '0091017300_14062023000145']
Stack 19 with items: ['0091017300_14062023000126', '0091017300_14062023000126']
Stack 20 with items: ['0091017300_14062023000184', '0091017300_14062023000184']
Stack 21 with items: ['0091017300_14062023000071', '0091017300_14062023000071']
Stack 22 with items: ['0091017300_14062023000126', '0091017300_14062023000126']
Stack 23 with items: ['0091017300_14062023000071', '0091017300_14062023000071']
Heuristic packed all stacks

----------------------------------------------------------------------------------------------------
2D Packing Heuristic in Truck P201654305
Min2DVol: 31.398659999999985 [m2]
Stack 0 with items: ['0091017300_14062023000177', '0091017300_14062023000177', '0091017300_14062023000177']
Stack 1 with items: ['0091017300_14062023000177', '0091017300_14062023000177', '0091017300_14062023000177']
Stack 2 with items: ['0091017300_14062023000157', '0091017300_14062023000123', '0091017300_14062023000123', '0091017300_14062023000157']
Stack 3 with items: ['0091017300_14062023000123', '0091017300_14062023000055', '0091017300_14062023000064', '0091017300_14062023000064', '0091017300_14062023000055']
Stack 4 with items: ['0091017300_14062023000055', '0091017300_14062023000043', '0091017300_14062023000019', '0091017300_14062023000055']
Stack 5 with items: ['0091017300_14062023000043', '0091017300_14062023000031', '0091017300_14062023000013']
Stack 6 with items: ['0091017300_14062023000031', '0091017300_14062023000013', '0091017300_14062023000031']
Stack 7 with items: ['0091017300_14062023000019', '0091017300_14062023000019', '0091017300_14062023000019']
Stack 8 with items: ['0091017300_14062023000019', '0091017300_14062023000013', '0091017300_14062023000013', '0091017300_14062023000019']
Stack 9 with items: ['0091017300_14062023000008', '0091017300_14062023000008', '0091017300_14062023000008']
Stack 10 with items: ['0091017300_14062023000007']
Stack 11 with items: ['0091017300_14062023000189', '0091017300_14062023000189']
Stack 12 with items: ['0091017300_14062023000189', '0091017300_14062023000189']
Stack 13 with items: ['0091017300_14062023000179', '0091017300_14062023000179']
Stack 14 with items: ['0091017300_14062023000179', '0091017300_14062023000179']
Stack 15 with items: ['0091017300_14062023000179', '0091017300_14062023000159']
Stack 16 with items: ['0091017300_14062023000159', '0091017300_14062023000159']
Stack 17 with items: ['0091017300_14062023000159', '0091017300_14062023000159']
Stack 18 with items: ['0091017300_14062023000159', '0091017300_14062023000159']
Stack 19 with items: ['0091017300_14062023000143', '0091017300_14062023000130']
Stack 20 with items: ['0091017300_14062023000124', '0091017300_14062023000124']
Stack 21 with items: ['0091017300_14062023000124', '0091017300_14062023000058']
Stack 22 with items: ['0091017300_14062023000058', '0091017300_14062023000058']
Stack 23 with items: ['0091017300_14062023000028', '0091017300_14062023000020']
Stack 24 with items: ['0091017300_14062023000020', '0091017300_14062023000017']
Stack 25 with items: ['0091017300_14062023000015', '0091017300_14062023000015']
Heuristic packed all stacks

----------------------------------------------------------------------------------------------------
2D Packing Heuristic in Truck P236654305
Min2DVol: 20.481270000000002 [m2]
Stack 0 with items: ['0091017300_14062023000188', '0091017300_14062023000185', '0091017300_14062023000188', '0091017300_14062023000188', '0091017300_14062023000188', '0091017300_14062023000188']
Stack 1 with items: ['0091017300_14062023000185', '0091017300_14062023000146', '0091017300_14062023000185']
Stack 2 with items: ['0091017300_14062023000169', '0091017300_14062023000052', '0091017300_14062023000169']
Stack 3 with items: ['0091017300_14062023000146', '0091017300_14062023000102', '0091017300_14062023000102']
Stack 4 with items: ['0091017300_14062023000102', '0091017300_14062023000102', '0091017300_14062023000102']
Stack 5 with items: ['0091017300_14062023000062', '0091017300_14062023000062', '0091017300_14062023000062']
Stack 6 with items: ['0091017300_14062023000062', '0091017300_14062023000052', '0091017300_14062023000052', '0091017300_14062023000052', '0091017300_14062023000062']
Stack 7 with items: ['0091017300_14062023000052', '0091017300_14062023000048', '0091017300_14062023000048']
Stack 8 with items: ['0091017300_14062023000009']
Stack 9 with items: ['0091017300_14062023000193', '0091017300_14062023000193']
Stack 10 with items: ['0091017300_14062023000193', '0091017300_14062023000193']
Stack 11 with items: ['0091017300_14062023000193', '0091017300_14062023000193']
Stack 12 with items: ['0091017300_14062023000193', '0091017300_14062023000193']
Stack 13 with items: ['0091017300_14062023000193', '0091017300_14062023000187']
Stack 14 with items: ['0091017300_14062023000187', '0091017300_14062023000187']
Stack 15 with items: ['0091017300_14062023000187', '0091017300_14062023000187']
Stack 16 with items: ['0091017300_14062023000187', '0091017300_14062023000187']
Stack 17 with items: ['0091017300_14062023000187', '0091017300_14062023000182']
Stack 18 with items: ['0091017300_14062023000182', '0091017300_14062023000182']
Stack 19 with items: ['0091017300_14062023000182', '0091017300_14062023000182']
Stack 20 with items: ['0091017300_14062023000182', '0091017300_14062023000182']
Stack 21 with items: ['0091017300_14062023000182', '0091017300_14062023000182']
Stack 22 with items: ['0091017300_14062023000182', '0091017300_14062023000168']
Stack 23 with items: ['0091017300_14062023000168', '0091017300_14062023000168']
Stack 24 with items: ['0091017300_14062023000150', '0091017300_14062023000150']
Stack 25 with items: ['0091017300_14062023000141', '0091017300_14062023000141']
Stack 26 with items: ['0091017300_14062023000141', '0091017300_14062023000141']
Stack 27 with items: ['0091017300_14062023000141', '0091017300_14062023000141']
Stack 28 with items: ['0091017300_14062023000141', '0091017300_14062023000114']
Stack 29 with items: ['0091017300_14062023000114', '0091017300_14062023000101']
Stack 30 with items: ['0091017300_14062023000101', '0091017300_14062023000042']
Stack 31 with items: ['0091017300_14062023000027', '0091017300_14062023000027']
Stack 32 with items: ['0091017300_14062023000022', '0091017300_14062023000022']
Stack 33 with items: ['0091017300_14062023000022', '0091017300_14062023000012']
Stacks not packed:
Stack 9 missing: ['0091017300_14062023000193', '0091017300_14062023000193']
Stack 10 missing: ['0091017300_14062023000193', '0091017300_14062023000193']
Stack 11 missing: ['0091017300_14062023000193', '0091017300_14062023000193']
Stack 12 missing: ['0091017300_14062023000193', '0091017300_14062023000193']
Stack 22 missing: ['0091017300_14062023000182', '0091017300_14062023000168']
Stack 23 missing: ['0091017300_14062023000168', '0091017300_14062023000168']
Stack 24 missing: ['0091017300_14062023000150', '0091017300_14062023000150']
Stack 30 missing: ['0091017300_14062023000101', '0091017300_14062023000042']
Stack 32 missing: ['0091017300_14062023000022', '0091017300_14062023000022']
Stack 33 missing: ['0091017300_14062023000022', '0091017300_14062023000012']
----------------------------------------------------------------------------------------------------
3D Packing Heuristic in Truck P236654305
Item 0091017300_14062023000193 with: 8
Item 0091017300_14062023000182 with: 1
Item 0091017300_14062023000168 with: 3
Item 0091017300_14062023000150 with: 2
Item 0091017300_14062023000101 with: 1
Item 0091017300_14062023000042 with: 1
Item 0091017300_14062023000022 with: 3
Item 0091017300_14062023000012 with: 1
Heuristic packed all items
****************************************************************************************************
****************************************************************************************************
****************************************************************************************************
Final Solution
Objective;119026.0
Transportation cost;106500.0
Inventory cost;12526.0
Runtime;6.06
****************************************************************************************************
****************************************************************************************************
****************************************************************************************************
####################################################################################################
Export solution
End ROADEF
####################################################################################################
####################################################################################################
####################################################################################################
####################################################################################################
####################################################################################################
####################################################################################################
####################################################################################################

real	0m7.115s
user	0m23.522s
sys	0m1.484s
finished at Thu Oct 19 14:12:12 CEST 2023
